p edge 60 691
e 1 5
e 1 6
e 1 11
e 1 13
e 1 14
e 1 16
e 1 18
e 1 24
e 1 25
e 1 27
e 1 28
e 1 29
e 1 30
e 1 32
e 1 33
e 1 34
e 1 37
e 1 43
e 1 44
e 1 45
e 1 51
e 1 52
e 1 54
e 1 55
e 1 56
e 2 4
e 2 8
e 2 9
e 2 10
e 2 16
e 2 19
e 2 21
e 2 22
e 2 23
e 2 24
e 2 26
e 2 30
e 2 32
e 2 38
e 2 42
e 2 43
e 2 46
e 2 48
e 2 53
e 2 54
e 2 59
e 2 60
e 3 5
e 3 7
e 3 9
e 3 10
e 3 12
e 3 14
e 3 15
e 3 17
e 3 19
e 3 21
e 3 25
e 3 27
e 3 31
e 3 32
e 3 33
e 3 34
e 3 35
e 3 40
e 3 42
e 3 43
e 3 45
e 3 50
e 3 51
e 3 53
e 3 60
e 4 6
e 4 8
e 4 15
e 4 16
e 4 21
e 4 23
e 4 24
e 4 25
e 4 27
e 4 28
e 4 29
e 4 31
e 4 34
e 4 36
e 4 37
e 4 39
e 4 41
e 4 51
e 4 52
e 4 53
e 4 55
e 4 60
e 5 6
e 5 9
e 5 11
e 5 12
e 5 13
e 5 14
e 5 15
e 5 18
e 5 22
e 5 23
e 5 26
e 5 31
e 5 33
e 5 34
e 5 36
e 5 42
e 5 43
e 5 49
e 5 50
e 5 53
e 6 8
e 6 14
e 6 15
e 6 16
e 6 18
e 6 20
e 6 26
e 6 30
e 6 34
e 6 35
e 6 40
e 6 41
e 6 42
e 6 45
e 6 54
e 7 8
e 7 10
e 7 13
e 7 14
e 7 15
e 7 17
e 7 18
e 7 19
e 7 21
e 7 26
e 7 28
e 7 30
e 7 35
e 7 36
e 7 37
e 7 39
e 7 40
e 7 41
e 7 44
e 7 50
e 7 51
e 7 52
e 7 55
e 7 56
e 7 58
e 7 59
e 8 9
e 8 10
e 8 11
e 8 15
e 8 19
e 8 20
e 8 22
e 8 23
e 8 27
e 8 32
e 8 34
e 8 35
e 8 38
e 8 43
e 8 48
e 8 49
e 8 52
e 8 53
e 8 55
e 8 57
e 8 58
e 8 60
e 9 11
e 9 12
e 9 16
e 9 17
e 9 18
e 9 23
e 9 27
e 9 31
e 9 32
e 9 33
e 9 34
e 9 35
e 9 36
e 9 49
e 9 52
e 9 53
e 9 58
e 9 59
e 10 16
e 10 17
e 10 18
e 10 19
e 10 25
e 10 28
e 10 29
e 10 32
e 10 37
e 10 40
e 10 41
e 10 48
e 10 49
e 10 51
e 10 53
e 11 12
e 11 15
e 11 16
e 11 17
e 11 18
e 11 19
e 11 20
e 11 25
e 11 26
e 11 34
e 11 37
e 11 38
e 11 41
e 11 42
e 11 43
e 11 47
e 11 49
e 11 50
e 11 52
e 11 56
e 11 60
e 12 13
e 12 16
e 12 18
e 12 23
e 12 27
e 12 28
e 12 31
e 12 34
e 12 37
e 12 42
e 12 44
e 12 46
e 12 51
e 12 53
e 12 54
e 12 56
e 12 59
e 12 60
e 13 19
e 13 21
e 13 25
e 13 26
e 13 27
e 13 30
e 13 34
e 13 39
e 13 40
e 13 47
e 13 49
e 13 50
e 13 58
e 14 17
e 14 18
e 14 22
e 14 24
e 14 25
e 14 27
e 14 28
e 14 30
e 14 33
e 14 38
e 14 39
e 14 42
e 14 43
e 14 44
e 14 48
e 14 50
e 14 51
e 14 53
e 14 56
e 14 57
e 15 16
e 15 18
e 15 19
e 15 21
e 15 22
e 15 23
e 15 25
e 15 32
e 15 34
e 15 44
e 15 46
e 15 47
e 15 49
e 15 53
e 15 58
e 15 59
e 16 23
e 16 25
e 16 26
e 16 27
e 16 29
e 16 31
e 16 33
e 16 37
e 16 38
e 16 41
e 16 44
e 16 45
e 16 49
e 16 51
e 17 20
e 17 21
e 17 23
e 17 24
e 17 25
e 17 27
e 17 32
e 17 33
e 17 34
e 17 36
e 17 37
e 17 38
e 17 41
e 17 42
e 17 44
e 17 46
e 17 49
e 17 51
e 17 52
e 17 53
e 17 59
e 17 60
e 18 23
e 18 24
e 18 26
e 18 30
e 18 34
e 18 36
e 18 38
e 18 41
e 18 42
e 18 43
e 18 52
e 18 53
e 18 54
e 18 55
e 18 56
e 18 57
e 18 60
e 19 20
e 19 23
e 19 26
e 19 27
e 19 28
e 19 31
e 19 33
e 19 39
e 19 42
e 19 43
e 19 44
e 19 45
e 19 47
e 19 48
e 19 53
e 19 55
e 19 57
e 19 59
e 19 60
e 20 21
e 20 22
e 20 23
e 20 25
e 20 27
e 20 29
e 20 31
e 20 38
e 20 40
e 20 41
e 20 43
e 20 44
e 20 45
e 20 46
e 20 48
e 20 50
e 20 52
e 20 53
e 20 54
e 20 55
e 20 58
e 21 24
e 21 25
e 21 30
e 21 40
e 21 41
e 21 43
e 21 44
e 21 45
e 21 47
e 21 51
e 21 53
e 21 56
e 21 59
e 22 23
e 22 25
e 22 27
e 22 29
e 22 31
e 22 32
e 22 33
e 22 37
e 22 39
e 22 40
e 22 41
e 22 45
e 22 49
e 22 51
e 22 52
e 22 53
e 22 54
e 22 57
e 22 59
e 23 27
e 23 33
e 23 34
e 23 36
e 23 38
e 23 40
e 23 42
e 23 44
e 23 47
e 23 49
e 23 50
e 23 52
e 23 53
e 23 56
e 23 57
e 24 25
e 24 28
e 24 31
e 24 33
e 24 36
e 24 37
e 24 41
e 24 43
e 24 44
e 24 45
e 24 46
e 24 50
e 24 53
e 24 54
e 24 55
e 25 26
e 25 27
e 25 28
e 25 29
e 25 32
e 25 39
e 25 43
e 25 44
e 25 45
e 25 46
e 25 49
e 25 51
e 25 53
e 25 54
e 25 55
e 25 56
e 25 57
e 25 59
e 26 27
e 26 33
e 26 36
e 26 37
e 26 38
e 26 40
e 26 46
e 26 47
e 26 51
e 26 53
e 26 54
e 26 55
e 26 56
e 26 57
e 27 29
e 27 30
e 27 39
e 27 41
e 27 42
e 27 44
e 27 45
e 27 50
e 27 53
e 27 54
e 27 57
e 28 30
e 28 31
e 28 33
e 28 34
e 28 35
e 28 41
e 28 42
e 28 46
e 28 48
e 28 49
e 28 50
e 28 56
e 28 59
e 28 60
e 29 31
e 29 33
e 29 34
e 29 35
e 29 36
e 29 49
e 29 50
e 29 51
e 29 55
e 29 57
e 29 59
e 30 33
e 30 36
e 30 38
e 30 39
e 30 40
e 30 43
e 30 44
e 30 45
e 30 46
e 30 47
e 30 52
e 30 53
e 30 57
e 31 38
e 31 42
e 31 46
e 31 47
e 31 49
e 31 50
e 31 57
e 32 35
e 32 38
e 32 39
e 32 42
e 32 43
e 32 45
e 32 46
e 32 48
e 32 52
e 32 55
e 32 56
e 32 57
e 32 59
e 33 36
e 33 43
e 33 50
e 33 51
e 33 53
e 33 54
e 33 55
e 34 37
e 34 41
e 34 45
e 34 48
e 34 49
e 35 36
e 35 37
e 35 39
e 35 40
e 35 41
e 35 42
e 35 44
e 35 46
e 35 48
e 35 52
e 35 54
e 35 58
e 36 37
e 36 40
e 36 45
e 36 46
e 36 50
e 36 51
e 36 52
e 36 54
e 36 56
e 36 60
e 37 38
e 37 41
e 37 42
e 37 48
e 37 50
e 37 51
e 37 54
e 38 43
e 38 45
e 38 48
e 38 50
e 38 54
e 38 57
e 38 58
e 38 59
e 38 60
e 39 44
e 39 50
e 39 53
e 39 59
e 39 60
e 40 41
e 40 42
e 40 44
e 40 49
e 40 53
e 40 55
e 40 57
e 40 58
e 41 43
e 41 51
e 42 48
e 42 49
e 42 50
e 42 57
e 42 58
e 43 44
e 43 46
e 43 50
e 43 56
e 43 57
e 43 58
e 44 47
e 44 48
e 44 51
e 44 52
e 44 58
e 44 59
e 45 47
e 45 52
e 45 53
e 46 47
e 46 49
e 46 50
e 46 51
e 46 53
e 46 54
e 46 57
e 46 58
e 46 59
e 47 52
e 47 53
e 47 54
e 47 55
e 47 56
e 47 58
e 48 51
e 48 52
e 48 53
e 48 54
e 48 55
e 48 56
e 49 50
e 49 52
e 49 54
e 49 55
e 49 56
e 49 57
e 49 58
e 50 52
e 50 53
e 50 57
e 51 54
e 51 55
e 51 57
e 52 57
e 52 60
e 53 57
e 53 59
e 53 60
e 54 55
e 54 59
e 54 60
e 55 57
e 55 58
e 55 59
e 56 58
e 56 60
e 57 59
e 57 60
e 58 59
e 58 60
e 59 60
